unsat
(:binary-propagations  21
 :conflicts            1
 :final-checks         1
 :max-generation       1
 :max-memory           27.41
 :memory               22.07
 :mk-bool-var          2469
 :mk-clause            719
 :mk-clause-binary     1908
 :num-allocs           73551204
 :num-checks           1
 :propagations         21
 :quant-instantiations 544
 :restarts             1
 :rlimit-count         486271
 :time                 0.13)
